4 
5  12 35 58 
6  13 28 43 58 
7  13 28 43 58 
8  13 28 43 58 
9  13 28 43 58 
10  13 28 43 58 
11  13 28 43 58 
12  13 28 43 58 
13  14 29 44 59 
14  11 26 41 55 
15  10 25 40 55 
16  10 25 40 55 
17  10 25 40 55 
18  13 28 47 
19  04 18 33 48 
20  03 18 33 48 
21  03 20 35 50 
22  05 19 34 49 
23  03 27 
0 
